(declare-fun _substvar_514_ () Bool)
(assert (not (forall ((q89 Real) (q90 Bool) (q91 Bool) (q92 Bool) (q93 Bool)) (xor true true (exists ((q10 Real) (q11 Bool) (q12 Bool) (q13 Bool) (q14 Real)) q13) true true _substvar_514_ q91 true))))
(check-sat)
